0,115,16,21,88,200,0
0,4,15,184,153,175,186,144,179,190,0
0,155,120,26,123,48,162,170,42,192,0
0,46,188,65,94,12,19,95,23,22,0
0,73,59,57,34,38,178,39,154,83,45,0
0,140,67,137,136,159,47,82,74,52,37,0
0,55,150,36,3,68,66,50,25,182,91,0
0,81,14,18,143,69,134,126,172,130,61,0
0,196,60,35,53,76,169,103,111,149,119,24,0
0,87,185,161,122,8,171,17,40,121,112,99,0
0,157,72,71,166,193,151,84,138,29,96,43,0
0,168,92,146,165,31,181,101,113,148,105,197,0
0,63,44,117,49,86,131,11,160,116,1,97,0
0,158,51,80,64,109,28,79,156,139,78,187,0
0,106,85,191,141,54,164,89,125,129,33,167,70,0
0,132,7,41,5,176,124,118,183,174,10,198,108,0
0,147,93,199,135,133,27,195,180,9,56,107,75,0
0,30,20,104,62,194,128,142,152,13,173,102,189,110,0
0,145,2,163,98,6,177,100,114,58,127,77,90,32,0
